NAME: rue_15_3
TYPE: TSP
DIMENSION: 15
EDGE_WEIGHT_TYPE: EUC_2D
NODE_COORD_SECTION
1 8 18
2 39 9
3 3 33
4 4 39
5 37 17
6 28 37
7 37 22
8 13 37
9 16 5
10 4 34
11 29 11
12 37 7
13 6 15
14 25 36
15 24 9

